NAME: instances/10_5.tsp
TYPE: TSP
COMMENT: 10-Staedte in Burma (Zaw Win)
DIMENSION: 10
EDGE_WEIGHT_TYPE: GEO
EDGE_WEIGHT_FORMAT: FUNCTION
DISPLAY_DATA_TYPE: COORD_DISPLAY
NODE_COORD_SECTION
1 -26.0 29.17
2 -5.41 -18.7
3 -3.73 -9.15
4 -15.38 2.28
5 11.76 17.17
6 -9.4 21.33
7 7.97 11.55
8 -26.67 23.09
9 0.26 3.65
10 -8.77 -2.9
EOF
